c *********************************
c * Circuit generated by BenCGen
c *
c * CarryLookahead_19_19_19_InOutT
c *
c * Ports with 1 gate(s): 2
c * Ports with 2 gate(s): 78
c * Ports with 3 gate(s): 19
c * Ports with 4 gate(s): 18
c * Ports with 5 gate(s): 17
c * Ports with 6 gate(s): 16
c * Ports with 7 gate(s): 15
c * Ports with 8 gate(s): 14
c * Ports with 9 gate(s): 13
c * Ports with 10 gate(s): 12
c * Ports with 11 gate(s): 11
c * Ports with 12 gate(s): 10
c * Ports with 13 gate(s): 9
c * Ports with 14 gate(s): 8
c * Ports with 15 gate(s): 7
c * Ports with 16 gate(s): 6
c * Ports with 17 gate(s): 5
c * Ports with 18 gate(s): 4
c * Ports with 19 gate(s): 3
c * Ports with 20 gate(s): 2
c * Total gates: 269
c *********************************
p cnf 307 2154
1 60 0
-1 -60 0
1 -59 0
60 -59 0
-1 -60 59 0
1 20 -61 0
-1 20 61 0
1 -20 61 0
-1 -20 -61 0
1 -80 0
20 -80 0
-1 -20 80 0
2 21 -62 0
-2 21 62 0
2 -21 62 0
-2 -21 -62 0
2 -81 0
21 -81 0
-2 -21 81 0
3 22 -63 0
-3 22 63 0
3 -22 63 0
-3 -22 -63 0
3 -82 0
22 -82 0
-3 -22 82 0
4 23 -64 0
-4 23 64 0
4 -23 64 0
-4 -23 -64 0
4 -83 0
23 -83 0
-4 -23 83 0
5 24 -65 0
-5 24 65 0
5 -24 65 0
-5 -24 -65 0
5 -84 0
24 -84 0
-5 -24 84 0
6 25 -66 0
-6 25 66 0
6 -25 66 0
-6 -25 -66 0
6 -85 0
25 -85 0
-6 -25 85 0
7 26 -67 0
-7 26 67 0
7 -26 67 0
-7 -26 -67 0
7 -86 0
26 -86 0
-7 -26 86 0
8 27 -68 0
-8 27 68 0
8 -27 68 0
-8 -27 -68 0
8 -87 0
27 -87 0
-8 -27 87 0
9 28 -69 0
-9 28 69 0
9 -28 69 0
-9 -28 -69 0
9 -88 0
28 -88 0
-9 -28 88 0
10 29 -70 0
-10 29 70 0
10 -29 70 0
-10 -29 -70 0
10 -89 0
29 -89 0
-10 -29 89 0
11 30 -71 0
-11 30 71 0
11 -30 71 0
-11 -30 -71 0
11 -90 0
30 -90 0
-11 -30 90 0
12 31 -72 0
-12 31 72 0
12 -31 72 0
-12 -31 -72 0
12 -91 0
31 -91 0
-12 -31 91 0
13 32 -73 0
-13 32 73 0
13 -32 73 0
-13 -32 -73 0
13 -92 0
32 -92 0
-13 -32 92 0
14 33 -74 0
-14 33 74 0
14 -33 74 0
-14 -33 -74 0
14 -93 0
33 -93 0
-14 -33 93 0
15 34 -75 0
-15 34 75 0
15 -34 75 0
-15 -34 -75 0
15 -94 0
34 -94 0
-15 -34 94 0
16 35 -76 0
-16 35 76 0
16 -35 76 0
-16 -35 -76 0
16 -95 0
35 -95 0
-16 -35 95 0
17 36 -77 0
-17 36 77 0
17 -36 77 0
-17 -36 -77 0
17 -96 0
36 -96 0
-17 -36 96 0
18 37 -78 0
-18 37 78 0
18 -37 78 0
-18 -37 -78 0
18 -97 0
37 -97 0
-18 -37 97 0
19 38 -79 0
-19 38 79 0
19 -38 79 0
-19 -38 -79 0
19 -98 0
38 -98 0
-19 -38 98 0
59 -118 0
61 -118 0
-59 -61 118 0
59 -119 0
61 -119 0
62 -119 0
-59 -61 -62 119 0
80 -120 0
62 -120 0
-80 -62 120 0
59 -121 0
61 -121 0
62 -121 0
63 -121 0
-59 -61 -62 -63 121 0
80 -122 0
62 -122 0
63 -122 0
-80 -62 -63 122 0
81 -123 0
63 -123 0
-81 -63 123 0
59 -124 0
61 -124 0
62 -124 0
63 -124 0
64 -124 0
-59 -61 -62 -63 -64 124 0
80 -125 0
62 -125 0
63 -125 0
64 -125 0
-80 -62 -63 -64 125 0
81 -126 0
63 -126 0
64 -126 0
-81 -63 -64 126 0
82 -127 0
64 -127 0
-82 -64 127 0
59 -128 0
61 -128 0
62 -128 0
63 -128 0
64 -128 0
65 -128 0
-59 -61 -62 -63 -64 -65 128 0
80 -129 0
62 -129 0
63 -129 0
64 -129 0
65 -129 0
-80 -62 -63 -64 -65 129 0
81 -130 0
63 -130 0
64 -130 0
65 -130 0
-81 -63 -64 -65 130 0
82 -131 0
64 -131 0
65 -131 0
-82 -64 -65 131 0
83 -132 0
65 -132 0
-83 -65 132 0
59 -133 0
61 -133 0
62 -133 0
63 -133 0
64 -133 0
65 -133 0
66 -133 0
-59 -61 -62 -63 -64 -65 -66 133 0
80 -134 0
62 -134 0
63 -134 0
64 -134 0
65 -134 0
66 -134 0
-80 -62 -63 -64 -65 -66 134 0
81 -135 0
63 -135 0
64 -135 0
65 -135 0
66 -135 0
-81 -63 -64 -65 -66 135 0
82 -136 0
64 -136 0
65 -136 0
66 -136 0
-82 -64 -65 -66 136 0
83 -137 0
65 -137 0
66 -137 0
-83 -65 -66 137 0
84 -138 0
66 -138 0
-84 -66 138 0
59 -139 0
61 -139 0
62 -139 0
63 -139 0
64 -139 0
65 -139 0
66 -139 0
67 -139 0
-59 -61 -62 -63 -64 -65 -66 -67 139 0
80 -140 0
62 -140 0
63 -140 0
64 -140 0
65 -140 0
66 -140 0
67 -140 0
-80 -62 -63 -64 -65 -66 -67 140 0
81 -141 0
63 -141 0
64 -141 0
65 -141 0
66 -141 0
67 -141 0
-81 -63 -64 -65 -66 -67 141 0
82 -142 0
64 -142 0
65 -142 0
66 -142 0
67 -142 0
-82 -64 -65 -66 -67 142 0
83 -143 0
65 -143 0
66 -143 0
67 -143 0
-83 -65 -66 -67 143 0
84 -144 0
66 -144 0
67 -144 0
-84 -66 -67 144 0
85 -145 0
67 -145 0
-85 -67 145 0
59 -146 0
61 -146 0
62 -146 0
63 -146 0
64 -146 0
65 -146 0
66 -146 0
67 -146 0
68 -146 0
-59 -61 -62 -63 -64 -65 -66 -67 -68 146 0
80 -147 0
62 -147 0
63 -147 0
64 -147 0
65 -147 0
66 -147 0
67 -147 0
68 -147 0
-80 -62 -63 -64 -65 -66 -67 -68 147 0
81 -148 0
63 -148 0
64 -148 0
65 -148 0
66 -148 0
67 -148 0
68 -148 0
-81 -63 -64 -65 -66 -67 -68 148 0
82 -149 0
64 -149 0
65 -149 0
66 -149 0
67 -149 0
68 -149 0
-82 -64 -65 -66 -67 -68 149 0
83 -150 0
65 -150 0
66 -150 0
67 -150 0
68 -150 0
-83 -65 -66 -67 -68 150 0
84 -151 0
66 -151 0
67 -151 0
68 -151 0
-84 -66 -67 -68 151 0
85 -152 0
67 -152 0
68 -152 0
-85 -67 -68 152 0
86 -153 0
68 -153 0
-86 -68 153 0
59 -154 0
61 -154 0
62 -154 0
63 -154 0
64 -154 0
65 -154 0
66 -154 0
67 -154 0
68 -154 0
69 -154 0
-59 -61 -62 -63 -64 -65 -66 -67 -68 -69 154 0
80 -155 0
62 -155 0
63 -155 0
64 -155 0
65 -155 0
66 -155 0
67 -155 0
68 -155 0
69 -155 0
-80 -62 -63 -64 -65 -66 -67 -68 -69 155 0
81 -156 0
63 -156 0
64 -156 0
65 -156 0
66 -156 0
67 -156 0
68 -156 0
69 -156 0
-81 -63 -64 -65 -66 -67 -68 -69 156 0
82 -157 0
64 -157 0
65 -157 0
66 -157 0
67 -157 0
68 -157 0
69 -157 0
-82 -64 -65 -66 -67 -68 -69 157 0
83 -158 0
65 -158 0
66 -158 0
67 -158 0
68 -158 0
69 -158 0
-83 -65 -66 -67 -68 -69 158 0
84 -159 0
66 -159 0
67 -159 0
68 -159 0
69 -159 0
-84 -66 -67 -68 -69 159 0
85 -160 0
67 -160 0
68 -160 0
69 -160 0
-85 -67 -68 -69 160 0
86 -161 0
68 -161 0
69 -161 0
-86 -68 -69 161 0
87 -162 0
69 -162 0
-87 -69 162 0
59 -163 0
61 -163 0
62 -163 0
63 -163 0
64 -163 0
65 -163 0
66 -163 0
67 -163 0
68 -163 0
69 -163 0
70 -163 0
-59 -61 -62 -63 -64 -65 -66 -67 -68 -69 -70 163 0
80 -164 0
62 -164 0
63 -164 0
64 -164 0
65 -164 0
66 -164 0
67 -164 0
68 -164 0
69 -164 0
70 -164 0
-80 -62 -63 -64 -65 -66 -67 -68 -69 -70 164 0
81 -165 0
63 -165 0
64 -165 0
65 -165 0
66 -165 0
67 -165 0
68 -165 0
69 -165 0
70 -165 0
-81 -63 -64 -65 -66 -67 -68 -69 -70 165 0
82 -166 0
64 -166 0
65 -166 0
66 -166 0
67 -166 0
68 -166 0
69 -166 0
70 -166 0
-82 -64 -65 -66 -67 -68 -69 -70 166 0
83 -167 0
65 -167 0
66 -167 0
67 -167 0
68 -167 0
69 -167 0
70 -167 0
-83 -65 -66 -67 -68 -69 -70 167 0
84 -168 0
66 -168 0
67 -168 0
68 -168 0
69 -168 0
70 -168 0
-84 -66 -67 -68 -69 -70 168 0
85 -169 0
67 -169 0
68 -169 0
69 -169 0
70 -169 0
-85 -67 -68 -69 -70 169 0
86 -170 0
68 -170 0
69 -170 0
70 -170 0
-86 -68 -69 -70 170 0
87 -171 0
69 -171 0
70 -171 0
-87 -69 -70 171 0
88 -172 0
70 -172 0
-88 -70 172 0
59 -173 0
61 -173 0
62 -173 0
63 -173 0
64 -173 0
65 -173 0
66 -173 0
67 -173 0
68 -173 0
69 -173 0
70 -173 0
71 -173 0
-59 -61 -62 -63 -64 -65 -66 -67 -68 -69 -70 -71 173 0
80 -174 0
62 -174 0
63 -174 0
64 -174 0
65 -174 0
66 -174 0
67 -174 0
68 -174 0
69 -174 0
70 -174 0
71 -174 0
-80 -62 -63 -64 -65 -66 -67 -68 -69 -70 -71 174 0
81 -175 0
63 -175 0
64 -175 0
65 -175 0
66 -175 0
67 -175 0
68 -175 0
69 -175 0
70 -175 0
71 -175 0
-81 -63 -64 -65 -66 -67 -68 -69 -70 -71 175 0
82 -176 0
64 -176 0
65 -176 0
66 -176 0
67 -176 0
68 -176 0
69 -176 0
70 -176 0
71 -176 0
-82 -64 -65 -66 -67 -68 -69 -70 -71 176 0
83 -177 0
65 -177 0
66 -177 0
67 -177 0
68 -177 0
69 -177 0
70 -177 0
71 -177 0
-83 -65 -66 -67 -68 -69 -70 -71 177 0
84 -178 0
66 -178 0
67 -178 0
68 -178 0
69 -178 0
70 -178 0
71 -178 0
-84 -66 -67 -68 -69 -70 -71 178 0
85 -179 0
67 -179 0
68 -179 0
69 -179 0
70 -179 0
71 -179 0
-85 -67 -68 -69 -70 -71 179 0
86 -180 0
68 -180 0
69 -180 0
70 -180 0
71 -180 0
-86 -68 -69 -70 -71 180 0
87 -181 0
69 -181 0
70 -181 0
71 -181 0
-87 -69 -70 -71 181 0
88 -182 0
70 -182 0
71 -182 0
-88 -70 -71 182 0
89 -183 0
71 -183 0
-89 -71 183 0
59 -184 0
61 -184 0
62 -184 0
63 -184 0
64 -184 0
65 -184 0
66 -184 0
67 -184 0
68 -184 0
69 -184 0
70 -184 0
71 -184 0
72 -184 0
-59 -61 -62 -63 -64 -65 -66 -67 -68 -69 -70 -71 -72 184 0
80 -185 0
62 -185 0
63 -185 0
64 -185 0
65 -185 0
66 -185 0
67 -185 0
68 -185 0
69 -185 0
70 -185 0
71 -185 0
72 -185 0
-80 -62 -63 -64 -65 -66 -67 -68 -69 -70 -71 -72 185 0
81 -186 0
63 -186 0
64 -186 0
65 -186 0
66 -186 0
67 -186 0
68 -186 0
69 -186 0
70 -186 0
71 -186 0
72 -186 0
-81 -63 -64 -65 -66 -67 -68 -69 -70 -71 -72 186 0
82 -187 0
64 -187 0
65 -187 0
66 -187 0
67 -187 0
68 -187 0
69 -187 0
70 -187 0
71 -187 0
72 -187 0
-82 -64 -65 -66 -67 -68 -69 -70 -71 -72 187 0
83 -188 0
65 -188 0
66 -188 0
67 -188 0
68 -188 0
69 -188 0
70 -188 0
71 -188 0
72 -188 0
-83 -65 -66 -67 -68 -69 -70 -71 -72 188 0
84 -189 0
66 -189 0
67 -189 0
68 -189 0
69 -189 0
70 -189 0
71 -189 0
72 -189 0
-84 -66 -67 -68 -69 -70 -71 -72 189 0
85 -190 0
67 -190 0
68 -190 0
69 -190 0
70 -190 0
71 -190 0
72 -190 0
-85 -67 -68 -69 -70 -71 -72 190 0
86 -191 0
68 -191 0
69 -191 0
70 -191 0
71 -191 0
72 -191 0
-86 -68 -69 -70 -71 -72 191 0
87 -192 0
69 -192 0
70 -192 0
71 -192 0
72 -192 0
-87 -69 -70 -71 -72 192 0
88 -193 0
70 -193 0
71 -193 0
72 -193 0
-88 -70 -71 -72 193 0
89 -194 0
71 -194 0
72 -194 0
-89 -71 -72 194 0
90 -195 0
72 -195 0
-90 -72 195 0
59 -196 0
61 -196 0
62 -196 0
63 -196 0
64 -196 0
65 -196 0
66 -196 0
67 -196 0
68 -196 0
69 -196 0
70 -196 0
71 -196 0
72 -196 0
73 -196 0
-59 -61 -62 -63 -64 -65 -66 -67 -68 -69 -70 -71 -72 -73 196 0
80 -197 0
62 -197 0
63 -197 0
64 -197 0
65 -197 0
66 -197 0
67 -197 0
68 -197 0
69 -197 0
70 -197 0
71 -197 0
72 -197 0
73 -197 0
-80 -62 -63 -64 -65 -66 -67 -68 -69 -70 -71 -72 -73 197 0
81 -198 0
63 -198 0
64 -198 0
65 -198 0
66 -198 0
67 -198 0
68 -198 0
69 -198 0
70 -198 0
71 -198 0
72 -198 0
73 -198 0
-81 -63 -64 -65 -66 -67 -68 -69 -70 -71 -72 -73 198 0
82 -199 0
64 -199 0
65 -199 0
66 -199 0
67 -199 0
68 -199 0
69 -199 0
70 -199 0
71 -199 0
72 -199 0
73 -199 0
-82 -64 -65 -66 -67 -68 -69 -70 -71 -72 -73 199 0
83 -200 0
65 -200 0
66 -200 0
67 -200 0
68 -200 0
69 -200 0
70 -200 0
71 -200 0
72 -200 0
73 -200 0
-83 -65 -66 -67 -68 -69 -70 -71 -72 -73 200 0
84 -201 0
66 -201 0
67 -201 0
68 -201 0
69 -201 0
70 -201 0
71 -201 0
72 -201 0
73 -201 0
-84 -66 -67 -68 -69 -70 -71 -72 -73 201 0
85 -202 0
67 -202 0
68 -202 0
69 -202 0
70 -202 0
71 -202 0
72 -202 0
73 -202 0
-85 -67 -68 -69 -70 -71 -72 -73 202 0
86 -203 0
68 -203 0
69 -203 0
70 -203 0
71 -203 0
72 -203 0
73 -203 0
-86 -68 -69 -70 -71 -72 -73 203 0
87 -204 0
69 -204 0
70 -204 0
71 -204 0
72 -204 0
73 -204 0
-87 -69 -70 -71 -72 -73 204 0
88 -205 0
70 -205 0
71 -205 0
72 -205 0
73 -205 0
-88 -70 -71 -72 -73 205 0
89 -206 0
71 -206 0
72 -206 0
73 -206 0
-89 -71 -72 -73 206 0
90 -207 0
72 -207 0
73 -207 0
-90 -72 -73 207 0
91 -208 0
73 -208 0
-91 -73 208 0
59 -209 0
61 -209 0
62 -209 0
63 -209 0
64 -209 0
65 -209 0
66 -209 0
67 -209 0
68 -209 0
69 -209 0
70 -209 0
71 -209 0
72 -209 0
73 -209 0
74 -209 0
-59 -61 -62 -63 -64 -65 -66 -67 -68 -69 -70 -71 -72 -73 -74 209 0
80 -210 0
62 -210 0
63 -210 0
64 -210 0
65 -210 0
66 -210 0
67 -210 0
68 -210 0
69 -210 0
70 -210 0
71 -210 0
72 -210 0
73 -210 0
74 -210 0
-80 -62 -63 -64 -65 -66 -67 -68 -69 -70 -71 -72 -73 -74 210 0
81 -211 0
63 -211 0
64 -211 0
65 -211 0
66 -211 0
67 -211 0
68 -211 0
69 -211 0
70 -211 0
71 -211 0
72 -211 0
73 -211 0
74 -211 0
-81 -63 -64 -65 -66 -67 -68 -69 -70 -71 -72 -73 -74 211 0
82 -212 0
64 -212 0
65 -212 0
66 -212 0
67 -212 0
68 -212 0
69 -212 0
70 -212 0
71 -212 0
72 -212 0
73 -212 0
74 -212 0
-82 -64 -65 -66 -67 -68 -69 -70 -71 -72 -73 -74 212 0
83 -213 0
65 -213 0
66 -213 0
67 -213 0
68 -213 0
69 -213 0
70 -213 0
71 -213 0
72 -213 0
73 -213 0
74 -213 0
-83 -65 -66 -67 -68 -69 -70 -71 -72 -73 -74 213 0
84 -214 0
66 -214 0
67 -214 0
68 -214 0
69 -214 0
70 -214 0
71 -214 0
72 -214 0
73 -214 0
74 -214 0
-84 -66 -67 -68 -69 -70 -71 -72 -73 -74 214 0
85 -215 0
67 -215 0
68 -215 0
69 -215 0
70 -215 0
71 -215 0
72 -215 0
73 -215 0
74 -215 0
-85 -67 -68 -69 -70 -71 -72 -73 -74 215 0
86 -216 0
68 -216 0
69 -216 0
70 -216 0
71 -216 0
72 -216 0
73 -216 0
74 -216 0
-86 -68 -69 -70 -71 -72 -73 -74 216 0
87 -217 0
69 -217 0
70 -217 0
71 -217 0
72 -217 0
73 -217 0
74 -217 0
-87 -69 -70 -71 -72 -73 -74 217 0
88 -218 0
70 -218 0
71 -218 0
72 -218 0
73 -218 0
74 -218 0
-88 -70 -71 -72 -73 -74 218 0
89 -219 0
71 -219 0
72 -219 0
73 -219 0
74 -219 0
-89 -71 -72 -73 -74 219 0
90 -220 0
72 -220 0
73 -220 0
74 -220 0
-90 -72 -73 -74 220 0
91 -221 0
73 -221 0
74 -221 0
-91 -73 -74 221 0
92 -222 0
74 -222 0
-92 -74 222 0
59 -223 0
61 -223 0
62 -223 0
63 -223 0
64 -223 0
65 -223 0
66 -223 0
67 -223 0
68 -223 0
69 -223 0
70 -223 0
71 -223 0
72 -223 0
73 -223 0
74 -223 0
75 -223 0
-59 -61 -62 -63 -64 -65 -66 -67 -68 -69 -70 -71 -72 -73 -74 -75 223 0
80 -224 0
62 -224 0
63 -224 0
64 -224 0
65 -224 0
66 -224 0
67 -224 0
68 -224 0
69 -224 0
70 -224 0
71 -224 0
72 -224 0
73 -224 0
74 -224 0
75 -224 0
-80 -62 -63 -64 -65 -66 -67 -68 -69 -70 -71 -72 -73 -74 -75 224 0
81 -225 0
63 -225 0
64 -225 0
65 -225 0
66 -225 0
67 -225 0
68 -225 0
69 -225 0
70 -225 0
71 -225 0
72 -225 0
73 -225 0
74 -225 0
75 -225 0
-81 -63 -64 -65 -66 -67 -68 -69 -70 -71 -72 -73 -74 -75 225 0
82 -226 0
64 -226 0
65 -226 0
66 -226 0
67 -226 0
68 -226 0
69 -226 0
70 -226 0
71 -226 0
72 -226 0
73 -226 0
74 -226 0
75 -226 0
-82 -64 -65 -66 -67 -68 -69 -70 -71 -72 -73 -74 -75 226 0
83 -227 0
65 -227 0
66 -227 0
67 -227 0
68 -227 0
69 -227 0
70 -227 0
71 -227 0
72 -227 0
73 -227 0
74 -227 0
75 -227 0
-83 -65 -66 -67 -68 -69 -70 -71 -72 -73 -74 -75 227 0
84 -228 0
66 -228 0
67 -228 0
68 -228 0
69 -228 0
70 -228 0
71 -228 0
72 -228 0
73 -228 0
74 -228 0
75 -228 0
-84 -66 -67 -68 -69 -70 -71 -72 -73 -74 -75 228 0
85 -229 0
67 -229 0
68 -229 0
69 -229 0
70 -229 0
71 -229 0
72 -229 0
73 -229 0
74 -229 0
75 -229 0
-85 -67 -68 -69 -70 -71 -72 -73 -74 -75 229 0
86 -230 0
68 -230 0
69 -230 0
70 -230 0
71 -230 0
72 -230 0
73 -230 0
74 -230 0
75 -230 0
-86 -68 -69 -70 -71 -72 -73 -74 -75 230 0
87 -231 0
69 -231 0
70 -231 0
71 -231 0
72 -231 0
73 -231 0
74 -231 0
75 -231 0
-87 -69 -70 -71 -72 -73 -74 -75 231 0
88 -232 0
70 -232 0
71 -232 0
72 -232 0
73 -232 0
74 -232 0
75 -232 0
-88 -70 -71 -72 -73 -74 -75 232 0
89 -233 0
71 -233 0
72 -233 0
73 -233 0
74 -233 0
75 -233 0
-89 -71 -72 -73 -74 -75 233 0
90 -234 0
72 -234 0
73 -234 0
74 -234 0
75 -234 0
-90 -72 -73 -74 -75 234 0
91 -235 0
73 -235 0
74 -235 0
75 -235 0
-91 -73 -74 -75 235 0
92 -236 0
74 -236 0
75 -236 0
-92 -74 -75 236 0
93 -237 0
75 -237 0
-93 -75 237 0
59 -238 0
61 -238 0
62 -238 0
63 -238 0
64 -238 0
65 -238 0
66 -238 0
67 -238 0
68 -238 0
69 -238 0
70 -238 0
71 -238 0
72 -238 0
73 -238 0
74 -238 0
75 -238 0
76 -238 0
-59 -61 -62 -63 -64 -65 -66 -67 -68 -69 -70 -71 -72 -73 -74 -75 -76 238 0
80 -239 0
62 -239 0
63 -239 0
64 -239 0
65 -239 0
66 -239 0
67 -239 0
68 -239 0
69 -239 0
70 -239 0
71 -239 0
72 -239 0
73 -239 0
74 -239 0
75 -239 0
76 -239 0
-80 -62 -63 -64 -65 -66 -67 -68 -69 -70 -71 -72 -73 -74 -75 -76 239 0
81 -240 0
63 -240 0
64 -240 0
65 -240 0
66 -240 0
67 -240 0
68 -240 0
69 -240 0
70 -240 0
71 -240 0
72 -240 0
73 -240 0
74 -240 0
75 -240 0
76 -240 0
-81 -63 -64 -65 -66 -67 -68 -69 -70 -71 -72 -73 -74 -75 -76 240 0
82 -241 0
64 -241 0
65 -241 0
66 -241 0
67 -241 0
68 -241 0
69 -241 0
70 -241 0
71 -241 0
72 -241 0
73 -241 0
74 -241 0
75 -241 0
76 -241 0
-82 -64 -65 -66 -67 -68 -69 -70 -71 -72 -73 -74 -75 -76 241 0
83 -242 0
65 -242 0
66 -242 0
67 -242 0
68 -242 0
69 -242 0
70 -242 0
71 -242 0
72 -242 0
73 -242 0
74 -242 0
75 -242 0
76 -242 0
-83 -65 -66 -67 -68 -69 -70 -71 -72 -73 -74 -75 -76 242 0
84 -243 0
66 -243 0
67 -243 0
68 -243 0
69 -243 0
70 -243 0
71 -243 0
72 -243 0
73 -243 0
74 -243 0
75 -243 0
76 -243 0
-84 -66 -67 -68 -69 -70 -71 -72 -73 -74 -75 -76 243 0
85 -244 0
67 -244 0
68 -244 0
69 -244 0
70 -244 0
71 -244 0
72 -244 0
73 -244 0
74 -244 0
75 -244 0
76 -244 0
-85 -67 -68 -69 -70 -71 -72 -73 -74 -75 -76 244 0
86 -245 0
68 -245 0
69 -245 0
70 -245 0
71 -245 0
72 -245 0
73 -245 0
74 -245 0
75 -245 0
76 -245 0
-86 -68 -69 -70 -71 -72 -73 -74 -75 -76 245 0
87 -246 0
69 -246 0
70 -246 0
71 -246 0
72 -246 0
73 -246 0
74 -246 0
75 -246 0
76 -246 0
-87 -69 -70 -71 -72 -73 -74 -75 -76 246 0
88 -247 0
70 -247 0
71 -247 0
72 -247 0
73 -247 0
74 -247 0
75 -247 0
76 -247 0
-88 -70 -71 -72 -73 -74 -75 -76 247 0
89 -248 0
71 -248 0
72 -248 0
73 -248 0
74 -248 0
75 -248 0
76 -248 0
-89 -71 -72 -73 -74 -75 -76 248 0
90 -249 0
72 -249 0
73 -249 0
74 -249 0
75 -249 0
76 -249 0
-90 -72 -73 -74 -75 -76 249 0
91 -250 0
73 -250 0
74 -250 0
75 -250 0
76 -250 0
-91 -73 -74 -75 -76 250 0
92 -251 0
74 -251 0
75 -251 0
76 -251 0
-92 -74 -75 -76 251 0
93 -252 0
75 -252 0
76 -252 0
-93 -75 -76 252 0
94 -253 0
76 -253 0
-94 -76 253 0
59 -254 0
61 -254 0
62 -254 0
63 -254 0
64 -254 0
65 -254 0
66 -254 0
67 -254 0
68 -254 0
69 -254 0
70 -254 0
71 -254 0
72 -254 0
73 -254 0
74 -254 0
75 -254 0
76 -254 0
77 -254 0
-59 -61 -62 -63 -64 -65 -66 -67 -68 -69 -70 -71 -72 -73 -74 -75 -76 -77 254 0
80 -255 0
62 -255 0
63 -255 0
64 -255 0
65 -255 0
66 -255 0
67 -255 0
68 -255 0
69 -255 0
70 -255 0
71 -255 0
72 -255 0
73 -255 0
74 -255 0
75 -255 0
76 -255 0
77 -255 0
-80 -62 -63 -64 -65 -66 -67 -68 -69 -70 -71 -72 -73 -74 -75 -76 -77 255 0
81 -256 0
63 -256 0
64 -256 0
65 -256 0
66 -256 0
67 -256 0
68 -256 0
69 -256 0
70 -256 0
71 -256 0
72 -256 0
73 -256 0
74 -256 0
75 -256 0
76 -256 0
77 -256 0
-81 -63 -64 -65 -66 -67 -68 -69 -70 -71 -72 -73 -74 -75 -76 -77 256 0
82 -257 0
64 -257 0
65 -257 0
66 -257 0
67 -257 0
68 -257 0
69 -257 0
70 -257 0
71 -257 0
72 -257 0
73 -257 0
74 -257 0
75 -257 0
76 -257 0
77 -257 0
-82 -64 -65 -66 -67 -68 -69 -70 -71 -72 -73 -74 -75 -76 -77 257 0
83 -258 0
65 -258 0
66 -258 0
67 -258 0
68 -258 0
69 -258 0
70 -258 0
71 -258 0
72 -258 0
73 -258 0
74 -258 0
75 -258 0
76 -258 0
77 -258 0
-83 -65 -66 -67 -68 -69 -70 -71 -72 -73 -74 -75 -76 -77 258 0
84 -259 0
66 -259 0
67 -259 0
68 -259 0
69 -259 0
70 -259 0
71 -259 0
72 -259 0
73 -259 0
74 -259 0
75 -259 0
76 -259 0
77 -259 0
-84 -66 -67 -68 -69 -70 -71 -72 -73 -74 -75 -76 -77 259 0
85 -260 0
67 -260 0
68 -260 0
69 -260 0
70 -260 0
71 -260 0
72 -260 0
73 -260 0
74 -260 0
75 -260 0
76 -260 0
77 -260 0
-85 -67 -68 -69 -70 -71 -72 -73 -74 -75 -76 -77 260 0
86 -261 0
68 -261 0
69 -261 0
70 -261 0
71 -261 0
72 -261 0
73 -261 0
74 -261 0
75 -261 0
76 -261 0
77 -261 0
-86 -68 -69 -70 -71 -72 -73 -74 -75 -76 -77 261 0
87 -262 0
69 -262 0
70 -262 0
71 -262 0
72 -262 0
73 -262 0
74 -262 0
75 -262 0
76 -262 0
77 -262 0
-87 -69 -70 -71 -72 -73 -74 -75 -76 -77 262 0
88 -263 0
70 -263 0
71 -263 0
72 -263 0
73 -263 0
74 -263 0
75 -263 0
76 -263 0
77 -263 0
-88 -70 -71 -72 -73 -74 -75 -76 -77 263 0
89 -264 0
71 -264 0
72 -264 0
73 -264 0
74 -264 0
75 -264 0
76 -264 0
77 -264 0
-89 -71 -72 -73 -74 -75 -76 -77 264 0
90 -265 0
72 -265 0
73 -265 0
74 -265 0
75 -265 0
76 -265 0
77 -265 0
-90 -72 -73 -74 -75 -76 -77 265 0
91 -266 0
73 -266 0
74 -266 0
75 -266 0
76 -266 0
77 -266 0
-91 -73 -74 -75 -76 -77 266 0
92 -267 0
74 -267 0
75 -267 0
76 -267 0
77 -267 0
-92 -74 -75 -76 -77 267 0
93 -268 0
75 -268 0
76 -268 0
77 -268 0
-93 -75 -76 -77 268 0
94 -269 0
76 -269 0
77 -269 0
-94 -76 -77 269 0
95 -270 0
77 -270 0
-95 -77 270 0
59 -271 0
61 -271 0
62 -271 0
63 -271 0
64 -271 0
65 -271 0
66 -271 0
67 -271 0
68 -271 0
69 -271 0
70 -271 0
71 -271 0
72 -271 0
73 -271 0
74 -271 0
75 -271 0
76 -271 0
77 -271 0
78 -271 0
-59 -61 -62 -63 -64 -65 -66 -67 -68 -69 -70 -71 -72 -73 -74 -75 -76 -77 -78 271 0
80 -272 0
62 -272 0
63 -272 0
64 -272 0
65 -272 0
66 -272 0
67 -272 0
68 -272 0
69 -272 0
70 -272 0
71 -272 0
72 -272 0
73 -272 0
74 -272 0
75 -272 0
76 -272 0
77 -272 0
78 -272 0
-80 -62 -63 -64 -65 -66 -67 -68 -69 -70 -71 -72 -73 -74 -75 -76 -77 -78 272 0
81 -273 0
63 -273 0
64 -273 0
65 -273 0
66 -273 0
67 -273 0
68 -273 0
69 -273 0
70 -273 0
71 -273 0
72 -273 0
73 -273 0
74 -273 0
75 -273 0
76 -273 0
77 -273 0
78 -273 0
-81 -63 -64 -65 -66 -67 -68 -69 -70 -71 -72 -73 -74 -75 -76 -77 -78 273 0
82 -274 0
64 -274 0
65 -274 0
66 -274 0
67 -274 0
68 -274 0
69 -274 0
70 -274 0
71 -274 0
72 -274 0
73 -274 0
74 -274 0
75 -274 0
76 -274 0
77 -274 0
78 -274 0
-82 -64 -65 -66 -67 -68 -69 -70 -71 -72 -73 -74 -75 -76 -77 -78 274 0
83 -275 0
65 -275 0
66 -275 0
67 -275 0
68 -275 0
69 -275 0
70 -275 0
71 -275 0
72 -275 0
73 -275 0
74 -275 0
75 -275 0
76 -275 0
77 -275 0
78 -275 0
-83 -65 -66 -67 -68 -69 -70 -71 -72 -73 -74 -75 -76 -77 -78 275 0
84 -276 0
66 -276 0
67 -276 0
68 -276 0
69 -276 0
70 -276 0
71 -276 0
72 -276 0
73 -276 0
74 -276 0
75 -276 0
76 -276 0
77 -276 0
78 -276 0
-84 -66 -67 -68 -69 -70 -71 -72 -73 -74 -75 -76 -77 -78 276 0
85 -277 0
67 -277 0
68 -277 0
69 -277 0
70 -277 0
71 -277 0
72 -277 0
73 -277 0
74 -277 0
75 -277 0
76 -277 0
77 -277 0
78 -277 0
-85 -67 -68 -69 -70 -71 -72 -73 -74 -75 -76 -77 -78 277 0
86 -278 0
68 -278 0
69 -278 0
70 -278 0
71 -278 0
72 -278 0
73 -278 0
74 -278 0
75 -278 0
76 -278 0
77 -278 0
78 -278 0
-86 -68 -69 -70 -71 -72 -73 -74 -75 -76 -77 -78 278 0
87 -279 0
69 -279 0
70 -279 0
71 -279 0
72 -279 0
73 -279 0
74 -279 0
75 -279 0
76 -279 0
77 -279 0
78 -279 0
-87 -69 -70 -71 -72 -73 -74 -75 -76 -77 -78 279 0
88 -280 0
70 -280 0
71 -280 0
72 -280 0
73 -280 0
74 -280 0
75 -280 0
76 -280 0
77 -280 0
78 -280 0
-88 -70 -71 -72 -73 -74 -75 -76 -77 -78 280 0
89 -281 0
71 -281 0
72 -281 0
73 -281 0
74 -281 0
75 -281 0
76 -281 0
77 -281 0
78 -281 0
-89 -71 -72 -73 -74 -75 -76 -77 -78 281 0
90 -282 0
72 -282 0
73 -282 0
74 -282 0
75 -282 0
76 -282 0
77 -282 0
78 -282 0
-90 -72 -73 -74 -75 -76 -77 -78 282 0
91 -283 0
73 -283 0
74 -283 0
75 -283 0
76 -283 0
77 -283 0
78 -283 0
-91 -73 -74 -75 -76 -77 -78 283 0
92 -284 0
74 -284 0
75 -284 0
76 -284 0
77 -284 0
78 -284 0
-92 -74 -75 -76 -77 -78 284 0
93 -285 0
75 -285 0
76 -285 0
77 -285 0
78 -285 0
-93 -75 -76 -77 -78 285 0
94 -286 0
76 -286 0
77 -286 0
78 -286 0
-94 -76 -77 -78 286 0
95 -287 0
77 -287 0
78 -287 0
-95 -77 -78 287 0
96 -288 0
78 -288 0
-96 -78 288 0
59 -289 0
61 -289 0
62 -289 0
63 -289 0
64 -289 0
65 -289 0
66 -289 0
67 -289 0
68 -289 0
69 -289 0
70 -289 0
71 -289 0
72 -289 0
73 -289 0
74 -289 0
75 -289 0
76 -289 0
77 -289 0
78 -289 0
79 -289 0
-59 -61 -62 -63 -64 -65 -66 -67 -68 -69 -70 -71 -72 -73 -74 -75 -76 -77 -78 -79 289 0
80 -290 0
62 -290 0
63 -290 0
64 -290 0
65 -290 0
66 -290 0
67 -290 0
68 -290 0
69 -290 0
70 -290 0
71 -290 0
72 -290 0
73 -290 0
74 -290 0
75 -290 0
76 -290 0
77 -290 0
78 -290 0
79 -290 0
-80 -62 -63 -64 -65 -66 -67 -68 -69 -70 -71 -72 -73 -74 -75 -76 -77 -78 -79 290 0
81 -291 0
63 -291 0
64 -291 0
65 -291 0
66 -291 0
67 -291 0
68 -291 0
69 -291 0
70 -291 0
71 -291 0
72 -291 0
73 -291 0
74 -291 0
75 -291 0
76 -291 0
77 -291 0
78 -291 0
79 -291 0
-81 -63 -64 -65 -66 -67 -68 -69 -70 -71 -72 -73 -74 -75 -76 -77 -78 -79 291 0
82 -292 0
64 -292 0
65 -292 0
66 -292 0
67 -292 0
68 -292 0
69 -292 0
70 -292 0
71 -292 0
72 -292 0
73 -292 0
74 -292 0
75 -292 0
76 -292 0
77 -292 0
78 -292 0
79 -292 0
-82 -64 -65 -66 -67 -68 -69 -70 -71 -72 -73 -74 -75 -76 -77 -78 -79 292 0
83 -293 0
65 -293 0
66 -293 0
67 -293 0
68 -293 0
69 -293 0
70 -293 0
71 -293 0
72 -293 0
73 -293 0
74 -293 0
75 -293 0
76 -293 0
77 -293 0
78 -293 0
79 -293 0
-83 -65 -66 -67 -68 -69 -70 -71 -72 -73 -74 -75 -76 -77 -78 -79 293 0
84 -294 0
66 -294 0
67 -294 0
68 -294 0
69 -294 0
70 -294 0
71 -294 0
72 -294 0
73 -294 0
74 -294 0
75 -294 0
76 -294 0
77 -294 0
78 -294 0
79 -294 0
-84 -66 -67 -68 -69 -70 -71 -72 -73 -74 -75 -76 -77 -78 -79 294 0
85 -295 0
67 -295 0
68 -295 0
69 -295 0
70 -295 0
71 -295 0
72 -295 0
73 -295 0
74 -295 0
75 -295 0
76 -295 0
77 -295 0
78 -295 0
79 -295 0
-85 -67 -68 -69 -70 -71 -72 -73 -74 -75 -76 -77 -78 -79 295 0
86 -296 0
68 -296 0
69 -296 0
70 -296 0
71 -296 0
72 -296 0
73 -296 0
74 -296 0
75 -296 0
76 -296 0
77 -296 0
78 -296 0
79 -296 0
-86 -68 -69 -70 -71 -72 -73 -74 -75 -76 -77 -78 -79 296 0
87 -297 0
69 -297 0
70 -297 0
71 -297 0
72 -297 0
73 -297 0
74 -297 0
75 -297 0
76 -297 0
77 -297 0
78 -297 0
79 -297 0
-87 -69 -70 -71 -72 -73 -74 -75 -76 -77 -78 -79 297 0
88 -298 0
70 -298 0
71 -298 0
72 -298 0
73 -298 0
74 -298 0
75 -298 0
76 -298 0
77 -298 0
78 -298 0
79 -298 0
-88 -70 -71 -72 -73 -74 -75 -76 -77 -78 -79 298 0
89 -299 0
71 -299 0
72 -299 0
73 -299 0
74 -299 0
75 -299 0
76 -299 0
77 -299 0
78 -299 0
79 -299 0
-89 -71 -72 -73 -74 -75 -76 -77 -78 -79 299 0
90 -300 0
72 -300 0
73 -300 0
74 -300 0
75 -300 0
76 -300 0
77 -300 0
78 -300 0
79 -300 0
-90 -72 -73 -74 -75 -76 -77 -78 -79 300 0
91 -301 0
73 -301 0
74 -301 0
75 -301 0
76 -301 0
77 -301 0
78 -301 0
79 -301 0
-91 -73 -74 -75 -76 -77 -78 -79 301 0
92 -302 0
74 -302 0
75 -302 0
76 -302 0
77 -302 0
78 -302 0
79 -302 0
-92 -74 -75 -76 -77 -78 -79 302 0
93 -303 0
75 -303 0
76 -303 0
77 -303 0
78 -303 0
79 -303 0
-93 -75 -76 -77 -78 -79 303 0
94 -304 0
76 -304 0
77 -304 0
78 -304 0
79 -304 0
-94 -76 -77 -78 -79 304 0
95 -305 0
77 -305 0
78 -305 0
79 -305 0
-95 -77 -78 -79 305 0
96 -306 0
78 -306 0
79 -306 0
-96 -78 -79 306 0
97 -307 0
79 -307 0
-97 -79 307 0
-80 99 0
-118 99 0
80 118 -99 0
-81 100 0
-119 100 0
-120 100 0
81 119 120 -100 0
-82 101 0
-121 101 0
-122 101 0
-123 101 0
82 121 122 123 -101 0
-83 102 0
-124 102 0
-125 102 0
-126 102 0
-127 102 0
83 124 125 126 127 -102 0
-84 103 0
-128 103 0
-129 103 0
-130 103 0
-131 103 0
-132 103 0
84 128 129 130 131 132 -103 0
-85 104 0
-133 104 0
-134 104 0
-135 104 0
-136 104 0
-137 104 0
-138 104 0
85 133 134 135 136 137 138 -104 0
-86 105 0
-139 105 0
-140 105 0
-141 105 0
-142 105 0
-143 105 0
-144 105 0
-145 105 0
86 139 140 141 142 143 144 145 -105 0
-87 106 0
-146 106 0
-147 106 0
-148 106 0
-149 106 0
-150 106 0
-151 106 0
-152 106 0
-153 106 0
87 146 147 148 149 150 151 152 153 -106 0
-88 107 0
-154 107 0
-155 107 0
-156 107 0
-157 107 0
-158 107 0
-159 107 0
-160 107 0
-161 107 0
-162 107 0
88 154 155 156 157 158 159 160 161 162 -107 0
-89 108 0
-163 108 0
-164 108 0
-165 108 0
-166 108 0
-167 108 0
-168 108 0
-169 108 0
-170 108 0
-171 108 0
-172 108 0
89 163 164 165 166 167 168 169 170 171 172 -108 0
-90 109 0
-173 109 0
-174 109 0
-175 109 0
-176 109 0
-177 109 0
-178 109 0
-179 109 0
-180 109 0
-181 109 0
-182 109 0
-183 109 0
90 173 174 175 176 177 178 179 180 181 182 183 -109 0
-91 110 0
-184 110 0
-185 110 0
-186 110 0
-187 110 0
-188 110 0
-189 110 0
-190 110 0
-191 110 0
-192 110 0
-193 110 0
-194 110 0
-195 110 0
91 184 185 186 187 188 189 190 191 192 193 194 195 -110 0
-92 111 0
-196 111 0
-197 111 0
-198 111 0
-199 111 0
-200 111 0
-201 111 0
-202 111 0
-203 111 0
-204 111 0
-205 111 0
-206 111 0
-207 111 0
-208 111 0
92 196 197 198 199 200 201 202 203 204 205 206 207 208 -111 0
-93 112 0
-209 112 0
-210 112 0
-211 112 0
-212 112 0
-213 112 0
-214 112 0
-215 112 0
-216 112 0
-217 112 0
-218 112 0
-219 112 0
-220 112 0
-221 112 0
-222 112 0
93 209 210 211 212 213 214 215 216 217 218 219 220 221 222 -112 0
-94 113 0
-223 113 0
-224 113 0
-225 113 0
-226 113 0
-227 113 0
-228 113 0
-229 113 0
-230 113 0
-231 113 0
-232 113 0
-233 113 0
-234 113 0
-235 113 0
-236 113 0
-237 113 0
94 223 224 225 226 227 228 229 230 231 232 233 234 235 236 237 -113 0
-95 114 0
-238 114 0
-239 114 0
-240 114 0
-241 114 0
-242 114 0
-243 114 0
-244 114 0
-245 114 0
-246 114 0
-247 114 0
-248 114 0
-249 114 0
-250 114 0
-251 114 0
-252 114 0
-253 114 0
95 238 239 240 241 242 243 244 245 246 247 248 249 250 251 252 253 -114 0
-96 115 0
-254 115 0
-255 115 0
-256 115 0
-257 115 0
-258 115 0
-259 115 0
-260 115 0
-261 115 0
-262 115 0
-263 115 0
-264 115 0
-265 115 0
-266 115 0
-267 115 0
-268 115 0
-269 115 0
-270 115 0
96 254 255 256 257 258 259 260 261 262 263 264 265 266 267 268 269 270 -115 0
-97 116 0
-271 116 0
-272 116 0
-273 116 0
-274 116 0
-275 116 0
-276 116 0
-277 116 0
-278 116 0
-279 116 0
-280 116 0
-281 116 0
-282 116 0
-283 116 0
-284 116 0
-285 116 0
-286 116 0
-287 116 0
-288 116 0
97 271 272 273 274 275 276 277 278 279 280 281 282 283 284 285 286 287 288 -116 0
-98 117 0
-289 117 0
-290 117 0
-291 117 0
-292 117 0
-293 117 0
-294 117 0
-295 117 0
-296 117 0
-297 117 0
-298 117 0
-299 117 0
-300 117 0
-301 117 0
-302 117 0
-303 117 0
-304 117 0
-305 117 0
-306 117 0
-307 117 0
98 289 290 291 292 293 294 295 296 297 298 299 300 301 302 303 304 305 306 307 -117 0
61 59 -39 0
-61 59 39 0
61 -59 39 0
-61 -59 -39 0
62 99 -40 0
-62 99 40 0
62 -99 40 0
-62 -99 -40 0
63 100 -41 0
-63 100 41 0
63 -100 41 0
-63 -100 -41 0
64 101 -42 0
-64 101 42 0
64 -101 42 0
-64 -101 -42 0
65 102 -43 0
-65 102 43 0
65 -102 43 0
-65 -102 -43 0
66 103 -44 0
-66 103 44 0
66 -103 44 0
-66 -103 -44 0
67 104 -45 0
-67 104 45 0
67 -104 45 0
-67 -104 -45 0
68 105 -46 0
-68 105 46 0
68 -105 46 0
-68 -105 -46 0
69 106 -47 0
-69 106 47 0
69 -106 47 0
-69 -106 -47 0
70 107 -48 0
-70 107 48 0
70 -107 48 0
-70 -107 -48 0
71 108 -49 0
-71 108 49 0
71 -108 49 0
-71 -108 -49 0
72 109 -50 0
-72 109 50 0
72 -109 50 0
-72 -109 -50 0
73 110 -51 0
-73 110 51 0
73 -110 51 0
-73 -110 -51 0
74 111 -52 0
-74 111 52 0
74 -111 52 0
-74 -111 -52 0
75 112 -53 0
-75 112 53 0
75 -112 53 0
-75 -112 -53 0
76 113 -54 0
-76 113 54 0
76 -113 54 0
-76 -113 -54 0
77 114 -55 0
-77 114 55 0
77 -114 55 0
-77 -114 -55 0
78 115 -56 0
-78 115 56 0
78 -115 56 0
-78 -115 -56 0
79 116 -57 0
-79 116 57 0
79 -116 57 0
-79 -116 -57 0
117 -58 0
-117 58 0
